RT is False
Default write of storage_offers_DA.csv just to have a file (but constraint should be inactive)
Reading model...
...model read.
creating competitive generators file...
...competitive generators recorded.
Loading data...
.. day-ahead data with real-time VRE data read.
Compiling instance...
...instance created.
Creating Offer Mitigation (model will solve as dispatch if TRUE)...
Solving...

Welcome to IBM(R) ILOG(R) CPLEX(R) Interactive Optimizer 12.9.0.0
  with Simplex, Mixed Integer & Barrier Optimizers
5725-A06 5725-A29 5724-Y48 5724-Y49 5724-Y54 5724-Y55 5655-Y21
Copyright IBM Corp. 1988, 2019.  All Rights Reserved.

Type 'help' for a list of available commands.
Type 'help' followed by a command name for more
information on commands.

CPLEX> Logfile 'cplex.log' closed.
Logfile 'C:\Users\llavin\Desktop\test919\logs\tmprnwui45e.cplex.log' open.
CPLEX> New value for parallel optimization mode: -1
CPLEX> New value for mixed integer optimality gap tolerance: 0.01
CPLEX> New value for integrality tolerance: 1e-09
CPLEX> New value for feasibility tolerance: 0.01
CPLEX> New value for deterministic time limit in ticks: 75000
CPLEX> Problem 'C:\Users\llavin\Desktop\test919\logs\tmpifwqbyg3.pyomo.lp' read.
Read time = 0.06 sec. (3.04 ticks)
CPLEX> Problem name         : C:\Users\llavin\Desktop\test919\logs\tmpifwqbyg3.pyomo.lp
Objective sense      : Minimize
Variables            :   26081  [Nneg: 1,  Box: 21616,  Free: 4464]
Objective nonzeros   :    2496
Linear constraints   :   27515  [Less: 14006,  Greater: 4416,  Equal: 9093]
  Nonzeros           :   89267
  RHS nonzeros       :   12264

Variables            : Min LB: -5000.000        Max UB: 1000000.       
Objective nonzeros   : Min   : 15.73158         Max   : 124.0997       
Linear constraints   :
  Nonzeros           : Min   : 0.8500000        Max   : 3000.000       
  RHS nonzeros       : Min   : 0.008333333      Max   : 5000.000       
CPLEX> CPXPARAM_Parallel                                -1
CPXPARAM_Simplex_Tolerances_Feasibility          0.01
CPXPARAM_DetTimeLimit                            75000
CPXPARAM_MIP_Tolerances_MIPGap                   0.01
CPXPARAM_MIP_Tolerances_Integrality              1.0000000000000001e-09
Parallel mode: opportunistic, using up to 32 threads for concurrent optimization.
Tried aggregator 1 time.
LP Presolve eliminated 21353 rows and 15463 columns.
Aggregator did 776 substitutions.
Reduced LP has 5386 rows, 9842 columns, and 31800 nonzeros.
Presolve time = 0.06 sec. (30.48 ticks)
Symmetry aggregator did 5563 additional substitutions.

Iteration log . . .
Iteration:     1   Dual objective     =             0.000000
Perturbation started.
Iteration:   101   Dual objective     =             0.000000
Iteration:   337   Dual objective     =             1.207886
Iteration:   576   Dual objective     =             1.701005
Iteration:   824   Dual objective     =             1.833958
Iteration:  1017   Dual objective     =             1.952661
Iteration:  1289   Dual objective     =             2.004303
Iteration:  1528   Dual objective     =             2.034060
Iteration:  1750   Dual objective     =             2.052038
Iteration:  1963   Dual objective     =             2.071971
Iteration:  2160   Dual objective     =             2.086656
Iteration:  2433   Dual objective     =             2.097624
Iteration:  2819   Dual objective     =             2.108818
Removing perturbation.
Dual superbasis not built.
Using devex.

Primal simplex solved model.


Primal simplex - Optimal:  Objective =  0.0000000000e+00
Solution time =    0.16 sec.  Iterations = 1439 (1048)
Deterministic time = 75.32 ticks  (482.82 ticks/sec)

CPLEX> Solution written to file 'C:\Users\llavin\Desktop\test919\logs\tmphj_t04ir.cplex.sol'.
CPLEX> Exporting results... 
...storage offer mitigation file created
Converting model to MPEC...
...converted
NOTE: initial MIP solve with only storage competitive to get feasible solution
Solving...

Welcome to IBM(R) ILOG(R) CPLEX(R) Interactive Optimizer 12.9.0.0
  with Simplex, Mixed Integer & Barrier Optimizers
5725-A06 5725-A29 5724-Y48 5724-Y49 5724-Y54 5724-Y55 5655-Y21
Copyright IBM Corp. 1988, 2019.  All Rights Reserved.

Type 'help' for a list of available commands.
Type 'help' followed by a command name for more
information on commands.

CPLEX> Logfile 'cplex.log' closed.
Logfile 'C:\Users\llavin\Desktop\test919\logs\tmpuqsez_jf.cplex.log' open.
CPLEX> New value for parallel optimization mode: -1
CPLEX> New value for mixed integer optimality gap tolerance: 0.01
CPLEX> New value for integrality tolerance: 1e-09
CPLEX> New value for feasibility tolerance: 0.01
CPLEX> New value for deterministic time limit in ticks: 75000
CPLEX> Problem 'C:\Users\llavin\Desktop\test919\logs\tmp7zql1wmr.pyomo.lp' read.
Read time = 0.25 sec. (14.78 ticks)
CPLEX> Problem name         : C:\Users\llavin\Desktop\test919\logs\tmp7zql1wmr.pyomo.lp
Objective sense      : Maximize
Variables            :   53805  [Nneg: 1,  Box: 22000,  Free: 4464,
                                 Binary: 27340]
Objective nonzeros   :    8973
Linear constraints   :  123205  [Less: 41346,  Greater: 59096,  Equal: 22763]
  Nonzeros           :  291794
  RHS nonzeros       :   67388

Variables            : Min LB: -5000.000        Max UB: 1000000.       
Objective nonzeros   : Min   : 0.008333333      Max   : 833.8833       
Linear constraints   :
  Nonzeros           : Min   : 0.008333333      Max   : 1000000.       
  RHS nonzeros       : Min   : 0.008333333      Max   : 1000000.       
CPLEX> CPXPARAM_Parallel                                -1
CPXPARAM_Simplex_Tolerances_Feasibility          0.01
CPXPARAM_DetTimeLimit                            75000
CPXPARAM_MIP_Tolerances_MIPGap                   0.01
CPXPARAM_MIP_Tolerances_Integrality              1.0000000000000001e-09
Tried aggregator 3 times.
MIP Presolve eliminated 88696 rows and 18993 columns.
MIP Presolve added 3392 rows and 0 columns.
MIP Presolve modified 24857 coefficients.
Aggregator did 13021 substitutions.
Reduced MIP has 24880 rows, 21232 columns, and 71009 nonzeros.
Reduced MIP has 8388 binaries, 0 generals, 0 SOSs, and 0 indicators.
Presolve time = 0.30 sec. (174.02 ticks)
Probing fixed 399 vars, tightened 2844 bounds.
Probing time = 1.25 sec. (897.62 ticks)
Tried aggregator 2 times.
MIP Presolve eliminated 909 rows and 811 columns.
MIP Presolve modified 2185 coefficients.
Aggregator did 39 substitutions.
Reduced MIP has 23932 rows, 20382 columns, and 68258 nonzeros.
Reduced MIP has 7983 binaries, 0 generals, 0 SOSs, and 0 indicators.
Presolve time = 0.11 sec. (68.44 ticks)
Probing time = 0.05 sec. (15.90 ticks)
Clique table members: 6275.
MIP emphasis: balance optimality and feasibility.
MIP search method: dynamic search.
Parallel mode: opportunistic, using up to 32 threads.
Root relaxation solution time = 0.36 sec. (387.12 ticks)

        Nodes                                         Cuts/
   Node  Left     Objective  IInf  Best Integer    Best Bound    ItCnt     Gap

      0     0        0.0000   668                      0.0000     2359         
*     0+    0                            0.0000        0.0000             0.00%
      0     0        cutoff              0.0000        0.0000     2359    0.00%
Elapsed time = 3.06 sec. (2023.26 ticks, tree = 0.01 MB, solutions = 1)

Root node processing (before b&c):
  Real time             =    3.08 sec. (2025.20 ticks)
Parallel b&c, 32 threads:
  Real time             =    0.00 sec. (0.00 ticks)
  Sync time (average)   =    0.00 sec.
  Wait time (average)   =    0.00 sec.
                          ------------
Total (root+branch&cut) =    3.08 sec. (2025.20 ticks)

Solution pool: 1 solution saved.

MIP - Integer optimal solution:  Objective =  0.0000000000e+00
Solution time =    3.09 sec.  Iterations = 2359  Nodes = 0
Deterministic time = 2025.36 ticks  (654.61 ticks/sec)

CPLEX> Incumbent solution written to file 'C:\Users\llavin\Desktop\test919\logs\tmp6cxyoi9p.cplex.sol'.
CPLEX> NOTE: no warmstart specified for MIP iteration, default behavior is true
NOTE: resolving with all competitive generators using storage-only solution to warmstart
Solving...

Welcome to IBM(R) ILOG(R) CPLEX(R) Interactive Optimizer 12.9.0.0
  with Simplex, Mixed Integer & Barrier Optimizers
5725-A06 5725-A29 5724-Y48 5724-Y49 5724-Y54 5724-Y55 5655-Y21
Copyright IBM Corp. 1988, 2019.  All Rights Reserved.

Type 'help' for a list of available commands.
Type 'help' followed by a command name for more
information on commands.

CPLEX> Logfile 'cplex.log' closed.
Logfile 'C:\Users\llavin\Desktop\test919\logs\tmpavy7ie81.cplex.log' open.
CPLEX> New value for parallel optimization mode: -1
CPLEX> New value for mixed integer optimality gap tolerance: 0.01
CPLEX> New value for integrality tolerance: 1e-09
CPLEX> New value for feasibility tolerance: 0.01
CPLEX> New value for deterministic time limit in ticks: 75000
CPLEX> Problem 'C:\Users\llavin\Desktop\test919\logs\tmpsrafbuo0.pyomo.lp' read.
Read time = 0.23 sec. (14.81 ticks)
CPLEX> MIP start file 'C:\Users\llavin\Desktop\test919\logs\tmphtwdyq26.cplex.mst' read.
CPLEX> Problem name         : C:\Users\llavin\Desktop\test919\logs\tmpsrafbuo0.pyomo.lp
Objective sense      : Maximize
Variables            :   54525  [Nneg: 1,  Box: 22720,  Free: 4464,
                                 Binary: 27340]
Objective nonzeros   :    9669
Linear constraints   :  123205  [Less: 41346,  Greater: 59096,  Equal: 22763]
  Nonzeros           :  291794
  RHS nonzeros       :   67388

Variables            : Min LB: -5000.000        Max UB: 1000000.       
Objective nonzeros   : Min   : 0.008333333      Max   : 786.4000       
Linear constraints   :
  Nonzeros           : Min   : 0.008333333      Max   : 1000000.       
  RHS nonzeros       : Min   : 0.008333333      Max   : 1000000.       
CPLEX> CPXPARAM_Parallel                                -1
CPXPARAM_Simplex_Tolerances_Feasibility          0.01
CPXPARAM_DetTimeLimit                            75000
CPXPARAM_MIP_Tolerances_MIPGap                   0.01
CPXPARAM_MIP_Tolerances_Integrality              1.0000000000000001e-09
Warning:  No solution found from 1 MIP starts.
Retaining values of one MIP start for possible repair.
Tried aggregator 3 times.
MIP Presolve eliminated 88696 rows and 19713 columns.
MIP Presolve added 3392 rows and 0 columns.
MIP Presolve modified 24857 coefficients.
Aggregator did 13021 substitutions.
Reduced MIP has 24880 rows, 21232 columns, and 71009 nonzeros.
Reduced MIP has 8388 binaries, 0 generals, 0 SOSs, and 0 indicators.
Presolve time = 0.30 sec. (174.38 ticks)
Probing fixed 399 vars, tightened 2844 bounds.
Probing time = 1.30 sec. (897.62 ticks)
Tried aggregator 2 times.
MIP Presolve eliminated 909 rows and 811 columns.
MIP Presolve modified 2185 coefficients.
Aggregator did 39 substitutions.
Reduced MIP has 23932 rows, 20382 columns, and 68258 nonzeros.
Reduced MIP has 7983 binaries, 0 generals, 0 SOSs, and 0 indicators.
Presolve time = 0.11 sec. (68.44 ticks)
Probing time = 0.03 sec. (15.90 ticks)
Clique table members: 6275.
MIP emphasis: balance optimality and feasibility.
MIP search method: dynamic search.
Parallel mode: opportunistic, using up to 32 threads.
Root relaxation solution time = 0.39 sec. (459.99 ticks)

        Nodes                                         Cuts/
   Node  Left     Objective  IInf  Best Integer    Best Bound    ItCnt     Gap

      0     0    73881.1742   840                  73881.1742     2420         
*     0+    0                            0.0000    73881.1742              --- 
      0     0    69434.4185   778        0.0000     Cuts: 607     2726     --- 
*     0+    0                            0.0001    69434.4185              --- 
      0     0    69129.4037   571        0.0001    Cuts: 1053     3001     --- 
      0     0    69129.4037   257        0.0001    Cuts: 1589     3447     --- 
      0     0    69129.4037   226        0.0001     Cuts: 188     3623     --- 
      0     0    69129.4037   202        0.0001     Cuts: 136     3688     --- 
      0     0    69129.4037   187        0.0001     Cuts: 104     3757     --- 
      0     0    69129.4037   183        0.0001      Cuts: 91     3797     --- 
      0     0    69129.4037   188        0.0001      Cuts: 97     3843     --- 
Repair heuristic found nothing.
      0    18    infeasible              0.0001   Impl Bds: 1     4416     --- 
Elapsed time = 8.47 sec. (5107.69 ticks, tree = 0.02 MB, solutions = 2)
    271    54    55396.5342   131        0.0001    68875.3026     6320     --- 
    709    57    55580.9985   121        0.0001    68875.3026     6434     --- 
   1282   110        cutoff              0.0001    67485.4311     7168     --- 
   1869   704    32447.1611   104        0.0001    67485.4311    18788     --- 
   2870   654    39430.0470    77        0.0001    67485.4311    16722     --- 
   3862  2024    29935.3124    87        0.0001    67485.4311    25808     --- 
   4740  2107    41373.9993    99        0.0001    67485.4311    26327     --- 
   5244  2384    26086.8623    79        0.0001    67485.4311    26448     --- 
   5590  3188        cutoff              0.0001    67485.4311    28820     --- 
*  6080  3430      integral     0    15308.6632    67485.4311    29884  340.83%
Elapsed time = 20.42 sec. (7585.58 ticks, tree = 23.34 MB, solutions = 4)
   7285  3957     2283.3355    36    15308.6632    67485.4311    33436  340.83%
   8489  3531    48950.0464   101    15308.6632    67485.4311    30317  340.83%
   9039  3981    26037.6787    64    15308.6632    67485.4311    33580  340.83%

Clique cuts applied:  5
Cover cuts applied:  3
Implied bound cuts applied:  56
Flow cuts applied:  373
Mixed integer rounding cuts applied:  268
Gomory fractional cuts applied:  43

Root node processing (before b&c):
  Real time             =    7.34 sec. (5095.57 ticks)
Parallel b&c, 32 threads:
  Real time             =   19.39 sec. (6835.34 ticks)
  Sync time (average)   =    0.82 sec.
  Wait time (average)   =    0.00 sec.
                          ------------
Total (root+branch&cut) =   26.73 sec. (11930.92 ticks)

Solution pool: 4 solutions saved.

MIP - Integer optimal solution:  Objective =  1.5308663226e+04
Solution time =   26.75 sec.  Iterations = 58119  Nodes = 9165
Deterministic time = 11931.07 ticks  (446.02 ticks/sec)

CPLEX> Incumbent solution written to file 'C:\Users\llavin\Desktop\test919\logs\tmpj42td_2r.cplex.sol'.
CPLEX> Exporting results... 
